<DOCUMENT>
<COLORDEN>-1</COLORDEN>
<TIPOORDEN>-1</TIPOORDEN>
<FILASPAGINA>0</FILASPAGINA>
<VISIBILIDAD>
	<VISIBLECOLUMNA name="idarticulo" >0</VISIBLECOLUMNA>
	<VISIBLECOLUMNA name="codigocompletoarticulo" >1</VISIBLECOLUMNA>
	<VISIBLECOLUMNA name="nomarticulo" >0</VISIBLECOLUMNA>
	<VISIBLECOLUMNA name="idlpresupuesto" >0</VISIBLECOLUMNA>
	<VISIBLECOLUMNA name="desclpresupuesto" >1</VISIBLECOLUMNA>
	<VISIBLECOLUMNA name="cantlpresupuesto" >1</VISIBLECOLUMNA>
	<VISIBLECOLUMNA name="pvplpresupuesto" >1</VISIBLECOLUMNA>
	<VISIBLECOLUMNA name="totallpresupuesto" >1</VISIBLECOLUMNA>
	<VISIBLECOLUMNA name="ivalpresupuesto" >0</VISIBLECOLUMNA>
	<VISIBLECOLUMNA name="reqeqlpresupuesto" >0</VISIBLECOLUMNA>
	<VISIBLECOLUMNA name="descuentolpresupuesto" >0</VISIBLECOLUMNA>
	<VISIBLECOLUMNA name="idpresupuesto" >0</VISIBLECOLUMNA>
	<VISIBLECOLUMNA name="ordenlpresupuesto" >0</VISIBLECOLUMNA>
</VISIBILIDAD>
<HORIZONTALHEADER>AAAA/wAAAAAAAAABAAAAAQAAAA0AAAAAAAAAAAAAAAANDR8AAAAIAAAADAAAAGQAAAALAAAAZAAAAAoAAABkAAAACQAAAGQAAAAIAAAAZAAAAAMAAABkAAAAAgAAAGQAAAAAAAAAZAAAAgwAAAANAQEBAAAAAAAAAAAAAAAAAGT/////AAAAhAAAAAAAAAAKAAAAAAAAAAEAAAAAAAAAfAAAAAEAAAAAAAAAAAAAAAEAAAAAAAAAAAAAAAEAAAAAAAABkAAAAAQAAAAAAAAAAAAAAAEAAAAAAAAAAAAAAAEAAAAAAAAAAAAAAAEAAAAAAAAAAAAAAAEAAAAAAAAAAAAAAAEAAAAA</HORIZONTALHEADER>
<COLUMNASHORIZONTALHEADER>AAAA/wAAAAAAAAABAAAAAQAAAAQAAAAAAAAAAAAAAAAEDAAAAAIAAAADAAAAAAAAAAIAAAAAAAAA9AAAAAQAAQEAAAAAAAAAAAABAAAAZP////8AAACEAAAAAAAAAAMAAACQAAAAAQAAAAMAAABkAAAAAQAAAAAAAAAAAAAAAgAAAAA=</COLUMNASHORIZONTALHEADER>
<ORDENCOLUMNAS>
	<ORDENCOLUMNA name="idarticulo" >0</ORDENCOLUMNA>
	<ORDENCOLUMNA name="codigocompletoarticulo" >1</ORDENCOLUMNA>
	<ORDENCOLUMNA name="nomarticulo" >2</ORDENCOLUMNA>
	<ORDENCOLUMNA name="idlpresupuesto" >3</ORDENCOLUMNA>
	<ORDENCOLUMNA name="desclpresupuesto" >4</ORDENCOLUMNA>
	<ORDENCOLUMNA name="cantlpresupuesto" >5</ORDENCOLUMNA>
	<ORDENCOLUMNA name="pvplpresupuesto" >6</ORDENCOLUMNA>
	<ORDENCOLUMNA name="totallpresupuesto" >7</ORDENCOLUMNA>
	<ORDENCOLUMNA name="ivalpresupuesto" >8</ORDENCOLUMNA>
	<ORDENCOLUMNA name="reqeqlpresupuesto" >9</ORDENCOLUMNA>
	<ORDENCOLUMNA name="descuentolpresupuesto" >10</ORDENCOLUMNA>
	<ORDENCOLUMNA name="idpresupuesto" >11</ORDENCOLUMNA>
	<ORDENCOLUMNA name="ordenlpresupuesto" >12</ORDENCOLUMNA>
</ORDENCOLUMNAS>
<VISIBILIDADMENU>1</VISIBILIDADMENU>
</DOCUMENT>
